p cnf 590 2513
1 0
-2 0
-3 0
-4 0
-5 0
-6 0
-7 0
-8 0
57 9 0
-57 -9 0
-407 -408 0
-407 -409 0
-408 -409 0
-410 -411 0
-410 -412 0
-411 -412 0
-9 407 0
-9 410 0
-10 407 0
-10 411 0
-11 407 0
-11 412 0
-12 408 0
-12 410 0
-13 408 0
-13 411 0
-14 408 0
-14 412 0
-15 409 0
-15 410 0
-16 409 0
-16 411 0
-9 1 17 0
-9 1 65 0
-9 17 65 0
-10 2 18 0
-10 2 66 0
-10 18 66 0
-11 3 19 0
-11 3 67 0
-11 19 67 0
-12 4 20 0
-12 4 68 0
-12 20 68 0
-13 5 21 0
-13 5 69 0
-13 21 69 0
-14 6 22 0
-14 6 70 0
-14 22 70 0
-15 7 23 0
-15 7 71 0
-15 23 71 0
-16 8 24 0
-16 8 72 0
-16 24 72 0
-9 -1 -17 -65 0
-10 -2 -18 -66 0
-11 -3 -19 -67 0
-12 -4 -20 -68 0
-13 -5 -21 -69 0
-14 -6 -22 -70 0
-15 -7 -23 -71 0
-16 -8 -24 -72 0
-413 -414 0
-413 -415 0
-414 -415 0
-416 -417 0
-416 -418 0
-417 -418 0
-17 413 0
-17 416 0
-18 413 0
-18 417 0
-19 413 0
-19 418 0
-20 414 0
-20 416 0
-21 414 0
-21 417 0
-22 414 0
-22 418 0
-23 415 0
-23 416 0
-24 415 0
-24 417 0
-17 9 25 0
-17 9 73 0
-17 25 73 0
-18 10 26 0
-18 10 74 0
-18 26 74 0
-19 11 27 0
-19 11 75 0
-19 27 75 0
-20 12 28 0
-20 12 76 0
-20 28 76 0
-21 13 29 0
-21 13 77 0
-21 29 77 0
-22 14 30 0
-22 14 78 0
-22 30 78 0
-23 15 31 0
-23 15 79 0
-23 31 79 0
-24 16 32 0
-24 16 80 0
-24 32 80 0
-17 -9 -25 -73 0
-18 -10 -26 -74 0
-19 -11 -27 -75 0
-20 -12 -28 -76 0
-21 -13 -29 -77 0
-22 -14 -30 -78 0
-23 -15 -31 -79 0
-24 -16 -32 -80 0
31 0
-25 0
-26 0
-27 0
-28 0
-29 0
-30 0
-32 0
23 39 87 0
-23 -39 0
-23 -87 0
-39 -87 0
-425 -426 0
-425 -427 0
-426 -427 0
-428 -429 0
-428 -430 0
-429 -430 0
-33 425 0
-33 428 0
-34 425 0
-34 429 0
-35 425 0
-35 430 0
-36 426 0
-36 428 0
-37 426 0
-37 429 0
-38 426 0
-38 430 0
-39 427 0
-39 428 0
-40 427 0
-40 429 0
-33 25 41 0
-33 25 89 0
-33 41 89 0
-34 26 42 0
-34 26 90 0
-34 42 90 0
-35 27 43 0
-35 27 91 0
-35 43 91 0
-36 28 44 0
-36 28 92 0
-36 44 92 0
-37 29 45 0
-37 29 93 0
-37 45 93 0
-38 30 46 0
-38 30 94 0
-38 46 94 0
-39 31 47 0
-39 31 95 0
-39 47 95 0
-40 32 48 0
-40 32 96 0
-40 48 96 0
-33 -25 -41 -89 0
-34 -26 -42 -90 0
-35 -27 -43 -91 0
-36 -28 -44 -92 0
-37 -29 -45 -93 0
-38 -30 -46 -94 0
-39 -31 -47 -95 0
-40 -32 -48 -96 0
-431 -432 0
-431 -433 0
-432 -433 0
-434 -435 0
-434 -436 0
-435 -436 0
-41 431 0
-41 434 0
-42 431 0
-42 435 0
-43 431 0
-43 436 0
-44 432 0
-44 434 0
-45 432 0
-45 435 0
-46 432 0
-46 436 0
-47 433 0
-47 434 0
-48 433 0
-48 435 0
-41 33 49 0
-41 33 97 0
-41 49 97 0
-42 34 50 0
-42 34 98 0
-42 50 98 0
-43 35 51 0
-43 35 99 0
-43 51 99 0
-44 36 52 0
-44 36 100 0
-44 52 100 0
-45 37 53 0
-45 37 101 0
-45 53 101 0
-46 38 54 0
-46 38 102 0
-46 54 102 0
-47 39 55 0
-47 39 103 0
-47 55 103 0
-48 40 56 0
-48 40 104 0
-48 56 104 0
-41 -33 -49 -97 0
-42 -34 -50 -98 0
-43 -35 -51 -99 0
-44 -36 -52 -100 0
-45 -37 -53 -101 0
-46 -38 -54 -102 0
-47 -39 -55 -103 0
-48 -40 -56 -104 0
-437 -438 0
-437 -439 0
-438 -439 0
-440 -441 0
-440 -442 0
-441 -442 0
-49 437 0
-49 440 0
-50 437 0
-50 441 0
-51 437 0
-51 442 0
-52 438 0
-52 440 0
-53 438 0
-53 441 0
-54 438 0
-54 442 0
-55 439 0
-55 440 0
-56 439 0
-56 441 0
-49 105 0
-49 41 0
-50 106 0
-50 42 0
-51 107 0
-51 43 0
-52 108 0
-52 44 0
-53 109 0
-53 45 0
-54 110 0
-54 46 0
-55 111 0
-55 47 0
-56 112 0
-56 48 0
-443 -444 0
-443 -445 0
-444 -445 0
-446 -447 0
-446 -448 0
-447 -448 0
-57 443 0
-57 446 0
-58 443 0
-58 447 0
-59 443 0
-59 448 0
-60 444 0
-60 446 0
-61 444 0
-61 447 0
-62 444 0
-62 448 0
-63 445 0
-63 446 0
-64 445 0
-64 447 0
-57 113 65 0
-57 113 1 0
-57 65 1 0
-58 114 66 0
-58 114 2 0
-58 66 2 0
-59 115 67 0
-59 115 3 0
-59 67 3 0
-60 116 68 0
-60 116 4 0
-60 68 4 0
-61 117 69 0
-61 117 5 0
-61 69 5 0
-62 118 70 0
-62 118 6 0
-62 70 6 0
-63 119 71 0
-63 119 7 0
-63 71 7 0
-64 120 72 0
-64 120 8 0
-64 72 8 0
-57 -113 -65 -1 0
-58 -114 -66 -2 0
-59 -115 -67 -3 0
-60 -116 -68 -4 0
-61 -117 -69 -5 0
-62 -118 -70 -6 0
-63 -119 -71 -7 0
-64 -120 -72 -8 0
71 0
-65 0
-66 0
-67 0
-68 0
-69 0
-70 0
-72 0
127 79 15 63 0
-127 -79 0
-127 -15 0
-127 -63 0
-79 -15 0
-79 -63 0
-15 -63 0
77 0
-73 0
-74 0
-75 0
-76 0
-78 0
-79 0
-80 0
133 85 21 69 0
-133 -85 0
-133 -21 0
-133 -69 0
-85 -21 0
-85 -69 0
-21 -69 0
-461 -462 0
-461 -463 0
-462 -463 0
-464 -465 0
-464 -466 0
-465 -466 0
-81 461 0
-81 464 0
-82 461 0
-82 465 0
-83 461 0
-83 466 0
-84 462 0
-84 464 0
-85 462 0
-85 465 0
-86 462 0
-86 466 0
-87 463 0
-87 464 0
-88 463 0
-88 465 0
-81 137 89 25 0
-81 137 89 73 0
-81 137 25 73 0
-81 89 25 73 0
-82 138 90 26 0
-82 138 90 74 0
-82 138 26 74 0
-82 90 26 74 0
-83 139 91 27 0
-83 139 91 75 0
-83 139 27 75 0
-83 91 27 75 0
-84 140 92 28 0
-84 140 92 76 0
-84 140 28 76 0
-84 92 28 76 0
-85 141 93 29 0
-85 141 93 77 0
-85 141 29 77 0
-85 93 29 77 0
-86 142 94 30 0
-86 142 94 78 0
-86 142 30 78 0
-86 94 30 78 0
-87 143 95 31 0
-87 143 95 79 0
-87 143 31 79 0
-87 95 31 79 0
-88 144 96 32 0
-88 144 96 80 0
-88 144 32 80 0
-88 96 32 80 0
-81 -137 -89 -25 0
-81 -137 -89 -73 0
-81 -137 -25 -73 0
-81 -89 -25 -73 0
-82 -138 -90 -26 0
-82 -138 -90 -74 0
-82 -138 -26 -74 0
-82 -90 -26 -74 0
-83 -139 -91 -27 0
-83 -139 -91 -75 0
-83 -139 -27 -75 0
-83 -91 -27 -75 0
-84 -140 -92 -28 0
-84 -140 -92 -76 0
-84 -140 -28 -76 0
-84 -92 -28 -76 0
-85 -141 -93 -29 0
-85 -141 -93 -77 0
-85 -141 -29 -77 0
-85 -93 -29 -77 0
-86 -142 -94 -30 0
-86 -142 -94 -78 0
-86 -142 -30 -78 0
-86 -94 -30 -78 0
-87 -143 -95 -31 0
-87 -143 -95 -79 0
-87 -143 -31 -79 0
-87 -95 -31 -79 0
-88 -144 -96 -32 0
-88 -144 -96 -80 0
-88 -144 -32 -80 0
-88 -96 -32 -80 0
-467 -468 0
-467 -469 0
-468 -469 0
-470 -471 0
-470 -472 0
-471 -472 0
-89 467 0
-89 470 0
-90 467 0
-90 471 0
-91 467 0
-91 472 0
-92 468 0
-92 470 0
-93 468 0
-93 471 0
-94 468 0
-94 472 0
-95 469 0
-95 470 0
-96 469 0
-96 471 0
-89 145 97 33 0
-89 145 97 81 0
-89 145 33 81 0
-89 97 33 81 0
-90 146 98 34 0
-90 146 98 82 0
-90 146 34 82 0
-90 98 34 82 0
-91 147 99 35 0
-91 147 99 83 0
-91 147 35 83 0
-91 99 35 83 0
-92 148 100 36 0
-92 148 100 84 0
-92 148 36 84 0
-92 100 36 84 0
-93 149 101 37 0
-93 149 101 85 0
-93 149 37 85 0
-93 101 37 85 0
-94 150 102 38 0
-94 150 102 86 0
-94 150 38 86 0
-94 102 38 86 0
-95 151 103 39 0
-95 151 103 87 0
-95 151 39 87 0
-95 103 39 87 0
-96 152 104 40 0
-96 152 104 88 0
-96 152 40 88 0
-96 104 40 88 0
-89 -145 -97 -33 0
-89 -145 -97 -81 0
-89 -145 -33 -81 0
-89 -97 -33 -81 0
-90 -146 -98 -34 0
-90 -146 -98 -82 0
-90 -146 -34 -82 0
-90 -98 -34 -82 0
-91 -147 -99 -35 0
-91 -147 -99 -83 0
-91 -147 -35 -83 0
-91 -99 -35 -83 0
-92 -148 -100 -36 0
-92 -148 -100 -84 0
-92 -148 -36 -84 0
-92 -100 -36 -84 0
-93 -149 -101 -37 0
-93 -149 -101 -85 0
-93 -149 -37 -85 0
-93 -101 -37 -85 0
-94 -150 -102 -38 0
-94 -150 -102 -86 0
-94 -150 -38 -86 0
-94 -102 -38 -86 0
-95 -151 -103 -39 0
-95 -151 -103 -87 0
-95 -151 -39 -87 0
-95 -103 -39 -87 0
-96 -152 -104 -40 0
-96 -152 -104 -88 0
-96 -152 -40 -88 0
-96 -104 -40 -88 0
100 0
-97 0
-98 0
-99 0
-101 0
-102 0
-103 0
-104 0
156 108 44 92 0
-156 -108 0
-156 -44 0
-156 -92 0
-108 -44 0
-108 -92 0
-44 -92 0
107 0
-105 0
-106 0
-108 0
-109 0
-110 0
-111 0
-112 0
163 99 51 0
-163 -99 0
-163 -51 0
-99 -51 0
-485 -486 0
-485 -487 0
-486 -487 0
-488 -489 0
-488 -490 0
-489 -490 0
-113 485 0
-113 488 0
-114 485 0
-114 489 0
-115 485 0
-115 490 0
-116 486 0
-116 488 0
-117 486 0
-117 489 0
-118 486 0
-118 490 0
-119 487 0
-119 488 0
-120 487 0
-120 489 0
-113 169 121 0
-113 169 57 0
-113 121 57 0
-114 170 122 0
-114 170 58 0
-114 122 58 0
-115 171 123 0
-115 171 59 0
-115 123 59 0
-116 172 124 0
-116 172 60 0
-116 124 60 0
-117 173 125 0
-117 173 61 0
-117 125 61 0
-118 174 126 0
-118 174 62 0
-118 126 62 0
-119 175 127 0
-119 175 63 0
-119 127 63 0
-120 176 128 0
-120 176 64 0
-120 128 64 0
-113 -169 -121 -57 0
-114 -170 -122 -58 0
-115 -171 -123 -59 0
-116 -172 -124 -60 0
-117 -173 -125 -61 0
-118 -174 -126 -62 0
-119 -175 -127 -63 0
-120 -176 -128 -64 0
-491 -492 0
-491 -493 0
-492 -493 0
-494 -495 0
-494 -496 0
-495 -496 0
-121 491 0
-121 494 0
-122 491 0
-122 495 0
-123 491 0
-123 496 0
-124 492 0
-124 494 0
-125 492 0
-125 495 0
-126 492 0
-126 496 0
-127 493 0
-127 494 0
-128 493 0
-128 495 0
-121 177 129 65 0
-121 177 129 113 0
-121 177 65 113 0
-121 129 65 113 0
-122 178 130 66 0
-122 178 130 114 0
-122 178 66 114 0
-122 130 66 114 0
-123 179 131 67 0
-123 179 131 115 0
-123 179 67 115 0
-123 131 67 115 0
-124 180 132 68 0
-124 180 132 116 0
-124 180 68 116 0
-124 132 68 116 0
-125 181 133 69 0
-125 181 133 117 0
-125 181 69 117 0
-125 133 69 117 0
-126 182 134 70 0
-126 182 134 118 0
-126 182 70 118 0
-126 134 70 118 0
-127 183 135 71 0
-127 183 135 119 0
-127 183 71 119 0
-127 135 71 119 0
-128 184 136 72 0
-128 184 136 120 0
-128 184 72 120 0
-128 136 72 120 0
-121 -177 -129 -65 0
-121 -177 -129 -113 0
-121 -177 -65 -113 0
-121 -129 -65 -113 0
-122 -178 -130 -66 0
-122 -178 -130 -114 0
-122 -178 -66 -114 0
-122 -130 -66 -114 0
-123 -179 -131 -67 0
-123 -179 -131 -115 0
-123 -179 -67 -115 0
-123 -131 -67 -115 0
-124 -180 -132 -68 0
-124 -180 -132 -116 0
-124 -180 -68 -116 0
-124 -132 -68 -116 0
-125 -181 -133 -69 0
-125 -181 -133 -117 0
-125 -181 -69 -117 0
-125 -133 -69 -117 0
-126 -182 -134 -70 0
-126 -182 -134 -118 0
-126 -182 -70 -118 0
-126 -134 -70 -118 0
-127 -183 -135 -71 0
-127 -183 -135 -119 0
-127 -183 -71 -119 0
-127 -135 -71 -119 0
-128 -184 -136 -72 0
-128 -184 -136 -120 0
-128 -184 -72 -120 0
-128 -136 -72 -120 0
134 0
-129 0
-130 0
-131 0
-132 0
-133 0
-135 0
-136 0
190 142 78 126 0
-190 -142 0
-190 -78 0
-190 -126 0
-142 -78 0
-142 -126 0
-78 -126 0
141 0
-137 0
-138 0
-139 0
-140 0
-142 0
-143 0
-144 0
197 149 85 133 0
-197 -149 0
-197 -85 0
-197 -133 0
-149 -85 0
-149 -133 0
-85 -133 0
-509 -510 0
-509 -511 0
-510 -511 0
-512 -513 0
-512 -514 0
-513 -514 0
-145 509 0
-145 512 0
-146 509 0
-146 513 0
-147 509 0
-147 514 0
-148 510 0
-148 512 0
-149 510 0
-149 513 0
-150 510 0
-150 514 0
-151 511 0
-151 512 0
-152 511 0
-152 513 0
-145 201 153 89 0
-145 201 153 137 0
-145 201 89 137 0
-145 153 89 137 0
-146 202 154 90 0
-146 202 154 138 0
-146 202 90 138 0
-146 154 90 138 0
-147 203 155 91 0
-147 203 155 139 0
-147 203 91 139 0
-147 155 91 139 0
-148 204 156 92 0
-148 204 156 140 0
-148 204 92 140 0
-148 156 92 140 0
-149 205 157 93 0
-149 205 157 141 0
-149 205 93 141 0
-149 157 93 141 0
-150 206 158 94 0
-150 206 158 142 0
-150 206 94 142 0
-150 158 94 142 0
-151 207 159 95 0
-151 207 159 143 0
-151 207 95 143 0
-151 159 95 143 0
-152 208 160 96 0
-152 208 160 144 0
-152 208 96 144 0
-152 160 96 144 0
-145 -201 -153 -89 0
-145 -201 -153 -137 0
-145 -201 -89 -137 0
-145 -153 -89 -137 0
-146 -202 -154 -90 0
-146 -202 -154 -138 0
-146 -202 -90 -138 0
-146 -154 -90 -138 0
-147 -203 -155 -91 0
-147 -203 -155 -139 0
-147 -203 -91 -139 0
-147 -155 -91 -139 0
-148 -204 -156 -92 0
-148 -204 -156 -140 0
-148 -204 -92 -140 0
-148 -156 -92 -140 0
-149 -205 -157 -93 0
-149 -205 -157 -141 0
-149 -205 -93 -141 0
-149 -157 -93 -141 0
-150 -206 -158 -94 0
-150 -206 -158 -142 0
-150 -206 -94 -142 0
-150 -158 -94 -142 0
-151 -207 -159 -95 0
-151 -207 -159 -143 0
-151 -207 -95 -143 0
-151 -159 -95 -143 0
-152 -208 -160 -96 0
-152 -208 -160 -144 0
-152 -208 -96 -144 0
-152 -160 -96 -144 0
-515 -516 0
-515 -517 0
-516 -517 0
-518 -519 0
-518 -520 0
-519 -520 0
-153 515 0
-153 518 0
-154 515 0
-154 519 0
-155 515 0
-155 520 0
-156 516 0
-156 518 0
-157 516 0
-157 519 0
-158 516 0
-158 520 0
-159 517 0
-159 518 0
-160 517 0
-160 519 0
-153 209 161 97 0
-153 209 161 145 0
-153 209 97 145 0
-153 161 97 145 0
-154 210 162 98 0
-154 210 162 146 0
-154 210 98 146 0
-154 162 98 146 0
-155 211 163 99 0
-155 211 163 147 0
-155 211 99 147 0
-155 163 99 147 0
-156 212 164 100 0
-156 212 164 148 0
-156 212 100 148 0
-156 164 100 148 0
-157 213 165 101 0
-157 213 165 149 0
-157 213 101 149 0
-157 165 101 149 0
-158 214 166 102 0
-158 214 166 150 0
-158 214 102 150 0
-158 166 102 150 0
-159 215 167 103 0
-159 215 167 151 0
-159 215 103 151 0
-159 167 103 151 0
-160 216 168 104 0
-160 216 168 152 0
-160 216 104 152 0
-160 168 104 152 0
-153 -209 -161 -97 0
-153 -209 -161 -145 0
-153 -209 -97 -145 0
-153 -161 -97 -145 0
-154 -210 -162 -98 0
-154 -210 -162 -146 0
-154 -210 -98 -146 0
-154 -162 -98 -146 0
-155 -211 -163 -99 0
-155 -211 -163 -147 0
-155 -211 -99 -147 0
-155 -163 -99 -147 0
-156 -212 -164 -100 0
-156 -212 -164 -148 0
-156 -212 -100 -148 0
-156 -164 -100 -148 0
-157 -213 -165 -101 0
-157 -213 -165 -149 0
-157 -213 -101 -149 0
-157 -165 -101 -149 0
-158 -214 -166 -102 0
-158 -214 -166 -150 0
-158 -214 -102 -150 0
-158 -166 -102 -150 0
-159 -215 -167 -103 0
-159 -215 -167 -151 0
-159 -215 -103 -151 0
-159 -167 -103 -151 0
-160 -216 -168 -104 0
-160 -216 -168 -152 0
-160 -216 -104 -152 0
-160 -168 -104 -152 0
162 0
-161 0
-163 0
-164 0
-165 0
-166 0
-167 0
-168 0
218 154 106 0
-218 -154 0
-218 -106 0
-154 -106 0
-527 -528 0
-527 -529 0
-528 -529 0
-530 -531 0
-530 -532 0
-531 -532 0
-169 527 0
-169 530 0
-170 527 0
-170 531 0
-171 527 0
-171 532 0
-172 528 0
-172 530 0
-173 528 0
-173 531 0
-174 528 0
-174 532 0
-175 529 0
-175 530 0
-176 529 0
-176 531 0
-169 225 177 0
-169 225 113 0
-169 177 113 0
-170 226 178 0
-170 226 114 0
-170 178 114 0
-171 227 179 0
-171 227 115 0
-171 179 115 0
-172 228 180 0
-172 228 116 0
-172 180 116 0
-173 229 181 0
-173 229 117 0
-173 181 117 0
-174 230 182 0
-174 230 118 0
-174 182 118 0
-175 231 183 0
-175 231 119 0
-175 183 119 0
-176 232 184 0
-176 232 120 0
-176 184 120 0
-169 -225 -177 -113 0
-170 -226 -178 -114 0
-171 -227 -179 -115 0
-172 -228 -180 -116 0
-173 -229 -181 -117 0
-174 -230 -182 -118 0
-175 -231 -183 -119 0
-176 -232 -184 -120 0
182 0
-177 0
-178 0
-179 0
-180 0
-181 0
-183 0
-184 0
238 190 126 174 0
-238 -190 0
-238 -126 0
-238 -174 0
-190 -126 0
-190 -174 0
-126 -174 0
185 0
-186 0
-187 0
-188 0
-189 0
-190 0
-191 0
-192 0
241 193 129 177 0
-241 -193 0
-241 -129 0
-241 -177 0
-193 -129 0
-193 -177 0
-129 -177 0
195 0
-193 0
-194 0
-196 0
-197 0
-198 0
-199 0
-200 0
251 203 139 187 0
-251 -203 0
-251 -139 0
-251 -187 0
-203 -139 0
-203 -187 0
-139 -187 0
-551 -552 0
-551 -553 0
-552 -553 0
-554 -555 0
-554 -556 0
-555 -556 0
-201 551 0
-201 554 0
-202 551 0
-202 555 0
-203 551 0
-203 556 0
-204 552 0
-204 554 0
-205 552 0
-205 555 0
-206 552 0
-206 556 0
-207 553 0
-207 554 0
-208 553 0
-208 555 0
-201 257 209 145 0
-201 257 209 193 0
-201 257 145 193 0
-201 209 145 193 0
-202 258 210 146 0
-202 258 210 194 0
-202 258 146 194 0
-202 210 146 194 0
-203 259 211 147 0
-203 259 211 195 0
-203 259 147 195 0
-203 211 147 195 0
-204 260 212 148 0
-204 260 212 196 0
-204 260 148 196 0
-204 212 148 196 0
-205 261 213 149 0
-205 261 213 197 0
-205 261 149 197 0
-205 213 149 197 0
-206 262 214 150 0
-206 262 214 198 0
-206 262 150 198 0
-206 214 150 198 0
-207 263 215 151 0
-207 263 215 199 0
-207 263 151 199 0
-207 215 151 199 0
-208 264 216 152 0
-208 264 216 200 0
-208 264 152 200 0
-208 216 152 200 0
-201 -257 -209 -145 0
-201 -257 -209 -193 0
-201 -257 -145 -193 0
-201 -209 -145 -193 0
-202 -258 -210 -146 0
-202 -258 -210 -194 0
-202 -258 -146 -194 0
-202 -210 -146 -194 0
-203 -259 -211 -147 0
-203 -259 -211 -195 0
-203 -259 -147 -195 0
-203 -211 -147 -195 0
-204 -260 -212 -148 0
-204 -260 -212 -196 0
-204 -260 -148 -196 0
-204 -212 -148 -196 0
-205 -261 -213 -149 0
-205 -261 -213 -197 0
-205 -261 -149 -197 0
-205 -213 -149 -197 0
-206 -262 -214 -150 0
-206 -262 -214 -198 0
-206 -262 -150 -198 0
-206 -214 -150 -198 0
-207 -263 -215 -151 0
-207 -263 -215 -199 0
-207 -263 -151 -199 0
-207 -215 -151 -199 0
-208 -264 -216 -152 0
-208 -264 -216 -200 0
-208 -264 -152 -200 0
-208 -216 -152 -200 0
-557 -558 0
-557 -559 0
-558 -559 0
-560 -561 0
-560 -562 0
-561 -562 0
-209 557 0
-209 560 0
-210 557 0
-210 561 0
-211 557 0
-211 562 0
-212 558 0
-212 560 0
-213 558 0
-213 561 0
-214 558 0
-214 562 0
-215 559 0
-215 560 0
-216 559 0
-216 561 0
-209 265 217 153 0
-209 265 217 201 0
-209 265 153 201 0
-209 217 153 201 0
-210 266 218 154 0
-210 266 218 202 0
-210 266 154 202 0
-210 218 154 202 0
-211 267 219 155 0
-211 267 219 203 0
-211 267 155 203 0
-211 219 155 203 0
-212 268 220 156 0
-212 268 220 204 0
-212 268 156 204 0
-212 220 156 204 0
-213 269 221 157 0
-213 269 221 205 0
-213 269 157 205 0
-213 221 157 205 0
-214 270 222 158 0
-214 270 222 206 0
-214 270 158 206 0
-214 222 158 206 0
-215 271 223 159 0
-215 271 223 207 0
-215 271 159 207 0
-215 223 159 207 0
-216 272 224 160 0
-216 272 224 208 0
-216 272 160 208 0
-216 224 160 208 0
-209 -265 -217 -153 0
-209 -265 -217 -201 0
-209 -265 -153 -201 0
-209 -217 -153 -201 0
-210 -266 -218 -154 0
-210 -266 -218 -202 0
-210 -266 -154 -202 0
-210 -218 -154 -202 0
-211 -267 -219 -155 0
-211 -267 -219 -203 0
-211 -267 -155 -203 0
-211 -219 -155 -203 0
-212 -268 -220 -156 0
-212 -268 -220 -204 0
-212 -268 -156 -204 0
-212 -220 -156 -204 0
-213 -269 -221 -157 0
-213 -269 -221 -205 0
-213 -269 -157 -205 0
-213 -221 -157 -205 0
-214 -270 -222 -158 0
-214 -270 -222 -206 0
-214 -270 -158 -206 0
-214 -222 -158 -206 0
-215 -271 -223 -159 0
-215 -271 -223 -207 0
-215 -271 -159 -207 0
-215 -223 -159 -207 0
-216 -272 -224 -160 0
-216 -272 -224 -208 0
-216 -272 -160 -208 0
-216 -224 -160 -208 0
-563 -564 0
-563 -565 0
-564 -565 0
-566 -567 0
-566 -568 0
-567 -568 0
-217 563 0
-217 566 0
-218 563 0
-218 567 0
-219 563 0
-219 568 0
-220 564 0
-220 566 0
-221 564 0
-221 567 0
-222 564 0
-222 568 0
-223 565 0
-223 566 0
-224 565 0
-224 567 0
-217 273 209 0
-217 273 161 0
-217 209 161 0
-218 274 210 0
-218 274 162 0
-218 210 162 0
-219 275 211 0
-219 275 163 0
-219 211 163 0
-220 276 212 0
-220 276 164 0
-220 212 164 0
-221 277 213 0
-221 277 165 0
-221 213 165 0
-222 278 214 0
-222 278 166 0
-222 214 166 0
-223 279 215 0
-223 279 167 0
-223 215 167 0
-224 280 216 0
-224 280 168 0
-224 216 168 0
-217 -273 -209 -161 0
-218 -274 -210 -162 0
-219 -275 -211 -163 0
-220 -276 -212 -164 0
-221 -277 -213 -165 0
-222 -278 -214 -166 0
-223 -279 -215 -167 0
-224 -280 -216 -168 0
-569 -570 0
-569 -571 0
-570 -571 0
-572 -573 0
-572 -574 0
-573 -574 0
-225 569 0
-225 572 0
-226 569 0
-226 573 0
-227 569 0
-227 574 0
-228 570 0
-228 572 0
-229 570 0
-229 573 0
-230 570 0
-230 574 0
-231 571 0
-231 572 0
-232 571 0
-232 573 0
-225 281 233 0
-225 281 169 0
-225 233 169 0
-226 282 234 0
-226 282 170 0
-226 234 170 0
-227 283 235 0
-227 283 171 0
-227 235 171 0
-228 284 236 0
-228 284 172 0
-228 236 172 0
-229 285 237 0
-229 285 173 0
-229 237 173 0
-230 286 238 0
-230 286 174 0
-230 238 174 0
-231 287 239 0
-231 287 175 0
-231 239 175 0
-232 288 240 0
-232 288 176 0
-232 240 176 0
-225 -281 -233 -169 0
-226 -282 -234 -170 0
-227 -283 -235 -171 0
-228 -284 -236 -172 0
-229 -285 -237 -173 0
-230 -286 -238 -174 0
-231 -287 -239 -175 0
-232 -288 -240 -176 0
-575 -576 0
-575 -577 0
-576 -577 0
-578 -579 0
-578 -580 0
-579 -580 0
-233 575 0
-233 578 0
-234 575 0
-234 579 0
-235 575 0
-235 580 0
-236 576 0
-236 578 0
-237 576 0
-237 579 0
-238 576 0
-238 580 0
-239 577 0
-239 578 0
-240 577 0
-240 579 0
-233 289 241 177 0
-233 289 241 225 0
-233 289 177 225 0
-233 241 177 225 0
-234 290 242 178 0
-234 290 242 226 0
-234 290 178 226 0
-234 242 178 226 0
-235 291 243 179 0
-235 291 243 227 0
-235 291 179 227 0
-235 243 179 227 0
-236 292 244 180 0
-236 292 244 228 0
-236 292 180 228 0
-236 244 180 228 0
-237 293 245 181 0
-237 293 245 229 0
-237 293 181 229 0
-237 245 181 229 0
-238 294 246 182 0
-238 294 246 230 0
-238 294 182 230 0
-238 246 182 230 0
-239 295 247 183 0
-239 295 247 231 0
-239 295 183 231 0
-239 247 183 231 0
-240 296 248 184 0
-240 296 248 232 0
-240 296 184 232 0
-240 248 184 232 0
-233 -289 -241 -177 0
-233 -289 -241 -225 0
-233 -289 -177 -225 0
-233 -241 -177 -225 0
-234 -290 -242 -178 0
-234 -290 -242 -226 0
-234 -290 -178 -226 0
-234 -242 -178 -226 0
-235 -291 -243 -179 0
-235 -291 -243 -227 0
-235 -291 -179 -227 0
-235 -243 -179 -227 0
-236 -292 -244 -180 0
-236 -292 -244 -228 0
-236 -292 -180 -228 0
-236 -244 -180 -228 0
-237 -293 -245 -181 0
-237 -293 -245 -229 0
-237 -293 -181 -229 0
-237 -245 -181 -229 0
-238 -294 -246 -182 0
-238 -294 -246 -230 0
-238 -294 -182 -230 0
-238 -246 -182 -230 0
-239 -295 -247 -183 0
-239 -295 -247 -231 0
-239 -295 -183 -231 0
-239 -247 -183 -231 0
-240 -296 -248 -184 0
-240 -296 -248 -232 0
-240 -296 -184 -232 0
-240 -248 -184 -232 0
-581 -582 0
-581 -583 0
-582 -583 0
-584 -585 0
-584 -586 0
-585 -586 0
-241 581 0
-241 584 0
-242 581 0
-242 585 0
-243 581 0
-243 586 0
-244 582 0
-244 584 0
-245 582 0
-245 585 0
-246 582 0
-246 586 0
-247 583 0
-247 584 0
-248 583 0
-248 585 0
-241 297 249 185 0
-241 297 249 233 0
-241 297 185 233 0
-241 249 185 233 0
-242 298 250 186 0
-242 298 250 234 0
-242 298 186 234 0
-242 250 186 234 0
-243 299 251 187 0
-243 299 251 235 0
-243 299 187 235 0
-243 251 187 235 0
-244 300 252 188 0
-244 300 252 236 0
-244 300 188 236 0
-244 252 188 236 0
-245 301 253 189 0
-245 301 253 237 0
-245 301 189 237 0
-245 253 189 237 0
-246 302 254 190 0
-246 302 254 238 0
-246 302 190 238 0
-246 254 190 238 0
-247 303 255 191 0
-247 303 255 239 0
-247 303 191 239 0
-247 255 191 239 0
-248 304 256 192 0
-248 304 256 240 0
-248 304 192 240 0
-248 256 192 240 0
-241 -297 -249 -185 0
-241 -297 -249 -233 0
-241 -297 -185 -233 0
-241 -249 -185 -233 0
-242 -298 -250 -186 0
-242 -298 -250 -234 0
-242 -298 -186 -234 0
-242 -250 -186 -234 0
-243 -299 -251 -187 0
-243 -299 -251 -235 0
-243 -299 -187 -235 0
-243 -251 -187 -235 0
-244 -300 -252 -188 0
-244 -300 -252 -236 0
-244 -300 -188 -236 0
-244 -252 -188 -236 0
-245 -301 -253 -189 0
-245 -301 -253 -237 0
-245 -301 -189 -237 0
-245 -253 -189 -237 0
-246 -302 -254 -190 0
-246 -302 -254 -238 0
-246 -302 -190 -238 0
-246 -254 -190 -238 0
-247 -303 -255 -191 0
-247 -303 -255 -239 0
-247 -303 -191 -239 0
-247 -255 -191 -239 0
-248 -304 -256 -192 0
-248 -304 -256 -240 0
-248 -304 -192 -240 0
-248 -256 -192 -240 0
252 0
-249 0
-250 0
-251 0
-253 0
-254 0
-255 0
-256 0
308 260 196 244 0
-308 -260 0
-308 -196 0
-308 -244 0
-260 -196 0
-260 -244 0
-196 -244 0
-593 -594 0
-593 -595 0
-594 -595 0
-596 -597 0
-596 -598 0
-597 -598 0
-257 593 0
-257 596 0
-258 593 0
-258 597 0
-259 593 0
-259 598 0
-260 594 0
-260 596 0
-261 594 0
-261 597 0
-262 594 0
-262 598 0
-263 595 0
-263 596 0
-264 595 0
-264 597 0
-257 313 265 201 0
-257 313 265 249 0
-257 313 201 249 0
-257 265 201 249 0
-258 314 266 202 0
-258 314 266 250 0
-258 314 202 250 0
-258 266 202 250 0
-259 315 267 203 0
-259 315 267 251 0
-259 315 203 251 0
-259 267 203 251 0
-260 316 268 204 0
-260 316 268 252 0
-260 316 204 252 0
-260 268 204 252 0
-261 317 269 205 0
-261 317 269 253 0
-261 317 205 253 0
-261 269 205 253 0
-262 318 270 206 0
-262 318 270 254 0
-262 318 206 254 0
-262 270 206 254 0
-263 319 271 207 0
-263 319 271 255 0
-263 319 207 255 0
-263 271 207 255 0
-264 320 272 208 0
-264 320 272 256 0
-264 320 208 256 0
-264 272 208 256 0
-257 -313 -265 -201 0
-257 -313 -265 -249 0
-257 -313 -201 -249 0
-257 -265 -201 -249 0
-258 -314 -266 -202 0
-258 -314 -266 -250 0
-258 -314 -202 -250 0
-258 -266 -202 -250 0
-259 -315 -267 -203 0
-259 -315 -267 -251 0
-259 -315 -203 -251 0
-259 -267 -203 -251 0
-260 -316 -268 -204 0
-260 -316 -268 -252 0
-260 -316 -204 -252 0
-260 -268 -204 -252 0
-261 -317 -269 -205 0
-261 -317 -269 -253 0
-261 -317 -205 -253 0
-261 -269 -205 -253 0
-262 -318 -270 -206 0
-262 -318 -270 -254 0
-262 -318 -206 -254 0
-262 -270 -206 -254 0
-263 -319 -271 -207 0
-263 -319 -271 -255 0
-263 -319 -207 -255 0
-263 -271 -207 -255 0
-264 -320 -272 -208 0
-264 -320 -272 -256 0
-264 -320 -208 -256 0
-264 -272 -208 -256 0
-599 -600 0
-599 -601 0
-600 -601 0
-602 -603 0
-602 -604 0
-603 -604 0
-265 599 0
-265 602 0
-266 599 0
-266 603 0
-267 599 0
-267 604 0
-268 600 0
-268 602 0
-269 600 0
-269 603 0
-270 600 0
-270 604 0
-271 601 0
-271 602 0
-272 601 0
-272 603 0
-265 321 273 209 0
-265 321 273 257 0
-265 321 209 257 0
-265 273 209 257 0
-266 322 274 210 0
-266 322 274 258 0
-266 322 210 258 0
-266 274 210 258 0
-267 323 275 211 0
-267 323 275 259 0
-267 323 211 259 0
-267 275 211 259 0
-268 324 276 212 0
-268 324 276 260 0
-268 324 212 260 0
-268 276 212 260 0
-269 325 277 213 0
-269 325 277 261 0
-269 325 213 261 0
-269 277 213 261 0
-270 326 278 214 0
-270 326 278 262 0
-270 326 214 262 0
-270 278 214 262 0
-271 327 279 215 0
-271 327 279 263 0
-271 327 215 263 0
-271 279 215 263 0
-272 328 280 216 0
-272 328 280 264 0
-272 328 216 264 0
-272 280 216 264 0
-265 -321 -273 -209 0
-265 -321 -273 -257 0
-265 -321 -209 -257 0
-265 -273 -209 -257 0
-266 -322 -274 -210 0
-266 -322 -274 -258 0
-266 -322 -210 -258 0
-266 -274 -210 -258 0
-267 -323 -275 -211 0
-267 -323 -275 -259 0
-267 -323 -211 -259 0
-267 -275 -211 -259 0
-268 -324 -276 -212 0
-268 -324 -276 -260 0
-268 -324 -212 -260 0
-268 -276 -212 -260 0
-269 -325 -277 -213 0
-269 -325 -277 -261 0
-269 -325 -213 -261 0
-269 -277 -213 -261 0
-270 -326 -278 -214 0
-270 -326 -278 -262 0
-270 -326 -214 -262 0
-270 -278 -214 -262 0
-271 -327 -279 -215 0
-271 -327 -279 -263 0
-271 -327 -215 -263 0
-271 -279 -215 -263 0
-272 -328 -280 -216 0
-272 -328 -280 -264 0
-272 -328 -216 -264 0
-272 -280 -216 -264 0
-605 -606 0
-605 -607 0
-606 -607 0
-608 -609 0
-608 -610 0
-609 -610 0
-273 605 0
-273 608 0
-274 605 0
-274 609 0
-275 605 0
-275 610 0
-276 606 0
-276 608 0
-277 606 0
-277 609 0
-278 606 0
-278 610 0
-279 607 0
-279 608 0
-280 607 0
-280 609 0
-273 329 265 0
-273 329 217 0
-273 265 217 0
-274 330 266 0
-274 330 218 0
-274 266 218 0
-275 331 267 0
-275 331 219 0
-275 267 219 0
-276 332 268 0
-276 332 220 0
-276 268 220 0
-277 333 269 0
-277 333 221 0
-277 269 221 0
-278 334 270 0
-278 334 222 0
-278 270 222 0
-279 335 271 0
-279 335 223 0
-279 271 223 0
-280 336 272 0
-280 336 224 0
-280 272 224 0
-273 -329 -265 -217 0
-274 -330 -266 -218 0
-275 -331 -267 -219 0
-276 -332 -268 -220 0
-277 -333 -269 -221 0
-278 -334 -270 -222 0
-279 -335 -271 -223 0
-280 -336 -272 -224 0
-611 -612 0
-611 -613 0
-612 -613 0
-614 -615 0
-614 -616 0
-615 -616 0
-281 611 0
-281 614 0
-282 611 0
-282 615 0
-283 611 0
-283 616 0
-284 612 0
-284 614 0
-285 612 0
-285 615 0
-286 612 0
-286 616 0
-287 613 0
-287 614 0
-288 613 0
-288 615 0
-281 337 289 0
-281 337 225 0
-281 289 225 0
-282 338 290 0
-282 338 226 0
-282 290 226 0
-283 339 291 0
-283 339 227 0
-283 291 227 0
-284 340 292 0
-284 340 228 0
-284 292 228 0
-285 341 293 0
-285 341 229 0
-285 293 229 0
-286 342 294 0
-286 342 230 0
-286 294 230 0
-287 343 295 0
-287 343 231 0
-287 295 231 0
-288 344 296 0
-288 344 232 0
-288 296 232 0
-281 -337 -289 -225 0
-282 -338 -290 -226 0
-283 -339 -291 -227 0
-284 -340 -292 -228 0
-285 -341 -293 -229 0
-286 -342 -294 -230 0
-287 -343 -295 -231 0
-288 -344 -296 -232 0
-617 -618 0
-617 -619 0
-618 -619 0
-620 -621 0
-620 -622 0
-621 -622 0
-289 617 0
-289 620 0
-290 617 0
-290 621 0
-291 617 0
-291 622 0
-292 618 0
-292 620 0
-293 618 0
-293 621 0
-294 618 0
-294 622 0
-295 619 0
-295 620 0
-296 619 0
-296 621 0
-289 345 297 233 0
-289 345 297 281 0
-289 345 233 281 0
-289 297 233 281 0
-290 346 298 234 0
-290 346 298 282 0
-290 346 234 282 0
-290 298 234 282 0
-291 347 299 235 0
-291 347 299 283 0
-291 347 235 283 0
-291 299 235 283 0
-292 348 300 236 0
-292 348 300 284 0
-292 348 236 284 0
-292 300 236 284 0
-293 349 301 237 0
-293 349 301 285 0
-293 349 237 285 0
-293 301 237 285 0
-294 350 302 238 0
-294 350 302 286 0
-294 350 238 286 0
-294 302 238 286 0
-295 351 303 239 0
-295 351 303 287 0
-295 351 239 287 0
-295 303 239 287 0
-296 352 304 240 0
-296 352 304 288 0
-296 352 240 288 0
-296 304 240 288 0
-289 -345 -297 -233 0
-289 -345 -297 -281 0
-289 -345 -233 -281 0
-289 -297 -233 -281 0
-290 -346 -298 -234 0
-290 -346 -298 -282 0
-290 -346 -234 -282 0
-290 -298 -234 -282 0
-291 -347 -299 -235 0
-291 -347 -299 -283 0
-291 -347 -235 -283 0
-291 -299 -235 -283 0
-292 -348 -300 -236 0
-292 -348 -300 -284 0
-292 -348 -236 -284 0
-292 -300 -236 -284 0
-293 -349 -301 -237 0
-293 -349 -301 -285 0
-293 -349 -237 -285 0
-293 -301 -237 -285 0
-294 -350 -302 -238 0
-294 -350 -302 -286 0
-294 -350 -238 -286 0
-294 -302 -238 -286 0
-295 -351 -303 -239 0
-295 -351 -303 -287 0
-295 -351 -239 -287 0
-295 -303 -239 -287 0
-296 -352 -304 -240 0
-296 -352 -304 -288 0
-296 -352 -240 -288 0
-296 -304 -240 -288 0
-623 -624 0
-623 -625 0
-624 -625 0
-626 -627 0
-626 -628 0
-627 -628 0
-297 623 0
-297 626 0
-298 623 0
-298 627 0
-299 623 0
-299 628 0
-300 624 0
-300 626 0
-301 624 0
-301 627 0
-302 624 0
-302 628 0
-303 625 0
-303 626 0
-304 625 0
-304 627 0
-297 353 305 241 0
-297 353 305 289 0
-297 353 241 289 0
-297 305 241 289 0
-298 354 306 242 0
-298 354 306 290 0
-298 354 242 290 0
-298 306 242 290 0
-299 355 307 243 0
-299 355 307 291 0
-299 355 243 291 0
-299 307 243 291 0
-300 356 308 244 0
-300 356 308 292 0
-300 356 244 292 0
-300 308 244 292 0
-301 357 309 245 0
-301 357 309 293 0
-301 357 245 293 0
-301 309 245 293 0
-302 358 310 246 0
-302 358 310 294 0
-302 358 246 294 0
-302 310 246 294 0
-303 359 311 247 0
-303 359 311 295 0
-303 359 247 295 0
-303 311 247 295 0
-304 360 312 248 0
-304 360 312 296 0
-304 360 248 296 0
-304 312 248 296 0
-297 -353 -305 -241 0
-297 -353 -305 -289 0
-297 -353 -241 -289 0
-297 -305 -241 -289 0
-298 -354 -306 -242 0
-298 -354 -306 -290 0
-298 -354 -242 -290 0
-298 -306 -242 -290 0
-299 -355 -307 -243 0
-299 -355 -307 -291 0
-299 -355 -243 -291 0
-299 -307 -243 -291 0
-300 -356 -308 -244 0
-300 -356 -308 -292 0
-300 -356 -244 -292 0
-300 -308 -244 -292 0
-301 -357 -309 -245 0
-301 -357 -309 -293 0
-301 -357 -245 -293 0
-301 -309 -245 -293 0
-302 -358 -310 -246 0
-302 -358 -310 -294 0
-302 -358 -246 -294 0
-302 -310 -246 -294 0
-303 -359 -311 -247 0
-303 -359 -311 -295 0
-303 -359 -247 -295 0
-303 -311 -247 -295 0
-304 -360 -312 -248 0
-304 -360 -312 -296 0
-304 -360 -248 -296 0
-304 -312 -248 -296 0
-629 -630 0
-629 -631 0
-630 -631 0
-632 -633 0
-632 -634 0
-633 -634 0
-305 629 0
-305 632 0
-306 629 0
-306 633 0
-307 629 0
-307 634 0
-308 630 0
-308 632 0
-309 630 0
-309 633 0
-310 630 0
-310 634 0
-311 631 0
-311 632 0
-312 631 0
-312 633 0
-305 361 313 249 0
-305 361 313 297 0
-305 361 249 297 0
-305 313 249 297 0
-306 362 314 250 0
-306 362 314 298 0
-306 362 250 298 0
-306 314 250 298 0
-307 363 315 251 0
-307 363 315 299 0
-307 363 251 299 0
-307 315 251 299 0
-308 364 316 252 0
-308 364 316 300 0
-308 364 252 300 0
-308 316 252 300 0
-309 365 317 253 0
-309 365 317 301 0
-309 365 253 301 0
-309 317 253 301 0
-310 366 318 254 0
-310 366 318 302 0
-310 366 254 302 0
-310 318 254 302 0
-311 367 319 255 0
-311 367 319 303 0
-311 367 255 303 0
-311 319 255 303 0
-312 368 320 256 0
-312 368 320 304 0
-312 368 256 304 0
-312 320 256 304 0
-305 -361 -313 -249 0
-305 -361 -313 -297 0
-305 -361 -249 -297 0
-305 -313 -249 -297 0
-306 -362 -314 -250 0
-306 -362 -314 -298 0
-306 -362 -250 -298 0
-306 -314 -250 -298 0
-307 -363 -315 -251 0
-307 -363 -315 -299 0
-307 -363 -251 -299 0
-307 -315 -251 -299 0
-308 -364 -316 -252 0
-308 -364 -316 -300 0
-308 -364 -252 -300 0
-308 -316 -252 -300 0
-309 -365 -317 -253 0
-309 -365 -317 -301 0
-309 -365 -253 -301 0
-309 -317 -253 -301 0
-310 -366 -318 -254 0
-310 -366 -318 -302 0
-310 -366 -254 -302 0
-310 -318 -254 -302 0
-311 -367 -319 -255 0
-311 -367 -319 -303 0
-311 -367 -255 -303 0
-311 -319 -255 -303 0
-312 -368 -320 -256 0
-312 -368 -320 -304 0
-312 -368 -256 -304 0
-312 -320 -256 -304 0
-635 -636 0
-635 -637 0
-636 -637 0
-638 -639 0
-638 -640 0
-639 -640 0
-313 635 0
-313 638 0
-314 635 0
-314 639 0
-315 635 0
-315 640 0
-316 636 0
-316 638 0
-317 636 0
-317 639 0
-318 636 0
-318 640 0
-319 637 0
-319 638 0
-320 637 0
-320 639 0
-313 369 321 257 0
-313 369 321 305 0
-313 369 257 305 0
-313 321 257 305 0
-314 370 322 258 0
-314 370 322 306 0
-314 370 258 306 0
-314 322 258 306 0
-315 371 323 259 0
-315 371 323 307 0
-315 371 259 307 0
-315 323 259 307 0
-316 372 324 260 0
-316 372 324 308 0
-316 372 260 308 0
-316 324 260 308 0
-317 373 325 261 0
-317 373 325 309 0
-317 373 261 309 0
-317 325 261 309 0
-318 374 326 262 0
-318 374 326 310 0
-318 374 262 310 0
-318 326 262 310 0
-319 375 327 263 0
-319 375 327 311 0
-319 375 263 311 0
-319 327 263 311 0
-320 376 328 264 0
-320 376 328 312 0
-320 376 264 312 0
-320 328 264 312 0
-313 -369 -321 -257 0
-313 -369 -321 -305 0
-313 -369 -257 -305 0
-313 -321 -257 -305 0
-314 -370 -322 -258 0
-314 -370 -322 -306 0
-314 -370 -258 -306 0
-314 -322 -258 -306 0
-315 -371 -323 -259 0
-315 -371 -323 -307 0
-315 -371 -259 -307 0
-315 -323 -259 -307 0
-316 -372 -324 -260 0
-316 -372 -324 -308 0
-316 -372 -260 -308 0
-316 -324 -260 -308 0
-317 -373 -325 -261 0
-317 -373 -325 -309 0
-317 -373 -261 -309 0
-317 -325 -261 -309 0
-318 -374 -326 -262 0
-318 -374 -326 -310 0
-318 -374 -262 -310 0
-318 -326 -262 -310 0
-319 -375 -327 -263 0
-319 -375 -327 -311 0
-319 -375 -263 -311 0
-319 -327 -263 -311 0
-320 -376 -328 -264 0
-320 -376 -328 -312 0
-320 -376 -264 -312 0
-320 -328 -264 -312 0
-641 -642 0
-641 -643 0
-642 -643 0
-644 -645 0
-644 -646 0
-645 -646 0
-321 641 0
-321 644 0
-322 641 0
-322 645 0
-323 641 0
-323 646 0
-324 642 0
-324 644 0
-325 642 0
-325 645 0
-326 642 0
-326 646 0
-327 643 0
-327 644 0
-328 643 0
-328 645 0
-321 377 329 265 0
-321 377 329 313 0
-321 377 265 313 0
-321 329 265 313 0
-322 378 330 266 0
-322 378 330 314 0
-322 378 266 314 0
-322 330 266 314 0
-323 379 331 267 0
-323 379 331 315 0
-323 379 267 315 0
-323 331 267 315 0
-324 380 332 268 0
-324 380 332 316 0
-324 380 268 316 0
-324 332 268 316 0
-325 381 333 269 0
-325 381 333 317 0
-325 381 269 317 0
-325 333 269 317 0
-326 382 334 270 0
-326 382 334 318 0
-326 382 270 318 0
-326 334 270 318 0
-327 383 335 271 0
-327 383 335 319 0
-327 383 271 319 0
-327 335 271 319 0
-328 384 336 272 0
-328 384 336 320 0
-328 384 272 320 0
-328 336 272 320 0
-321 -377 -329 -265 0
-321 -377 -329 -313 0
-321 -377 -265 -313 0
-321 -329 -265 -313 0
-322 -378 -330 -266 0
-322 -378 -330 -314 0
-322 -378 -266 -314 0
-322 -330 -266 -314 0
-323 -379 -331 -267 0
-323 -379 -331 -315 0
-323 -379 -267 -315 0
-323 -331 -267 -315 0
-324 -380 -332 -268 0
-324 -380 -332 -316 0
-324 -380 -268 -316 0
-324 -332 -268 -316 0
-325 -381 -333 -269 0
-325 -381 -333 -317 0
-325 -381 -269 -317 0
-325 -333 -269 -317 0
-326 -382 -334 -270 0
-326 -382 -334 -318 0
-326 -382 -270 -318 0
-326 -334 -270 -318 0
-327 -383 -335 -271 0
-327 -383 -335 -319 0
-327 -383 -271 -319 0
-327 -335 -271 -319 0
-328 -384 -336 -272 0
-328 -384 -336 -320 0
-328 -384 -272 -320 0
-328 -336 -272 -320 0
-647 -648 0
-647 -649 0
-648 -649 0
-650 -651 0
-650 -652 0
-651 -652 0
-329 647 0
-329 650 0
-330 647 0
-330 651 0
-331 647 0
-331 652 0
-332 648 0
-332 650 0
-333 648 0
-333 651 0
-334 648 0
-334 652 0
-335 649 0
-335 650 0
-336 649 0
-336 651 0
-329 385 321 0
-329 385 273 0
-329 321 273 0
-330 386 322 0
-330 386 274 0
-330 322 274 0
-331 387 323 0
-331 387 275 0
-331 323 275 0
-332 388 324 0
-332 388 276 0
-332 324 276 0
-333 389 325 0
-333 389 277 0
-333 325 277 0
-334 390 326 0
-334 390 278 0
-334 326 278 0
-335 391 327 0
-335 391 279 0
-335 327 279 0
-336 392 328 0
-336 392 280 0
-336 328 280 0
-329 -385 -321 -273 0
-330 -386 -322 -274 0
-331 -387 -323 -275 0
-332 -388 -324 -276 0
-333 -389 -325 -277 0
-334 -390 -326 -278 0
-335 -391 -327 -279 0
-336 -392 -328 -280 0
338 0
-337 0
-339 0
-340 0
-341 0
-342 0
-343 0
-344 0
282 346 0
-282 -346 0
352 0
-345 0
-346 0
-347 0
-348 0
-349 0
-350 0
-351 0
296 360 344 0
-296 -360 0
-296 -344 0
-360 -344 0
-665 -666 0
-665 -667 0
-666 -667 0
-668 -669 0
-668 -670 0
-669 -670 0
-353 665 0
-353 668 0
-354 665 0
-354 669 0
-355 665 0
-355 670 0
-356 666 0
-356 668 0
-357 666 0
-357 669 0
-358 666 0
-358 670 0
-359 667 0
-359 668 0
-360 667 0
-360 669 0
-353 297 361 0
-353 297 345 0
-353 361 345 0
-354 298 362 0
-354 298 346 0
-354 362 346 0
-355 299 363 0
-355 299 347 0
-355 363 347 0
-356 300 364 0
-356 300 348 0
-356 364 348 0
-357 301 365 0
-357 301 349 0
-357 365 349 0
-358 302 366 0
-358 302 350 0
-358 366 350 0
-359 303 367 0
-359 303 351 0
-359 367 351 0
-360 304 368 0
-360 304 352 0
-360 368 352 0
-353 -297 -361 -345 0
-354 -298 -362 -346 0
-355 -299 -363 -347 0
-356 -300 -364 -348 0
-357 -301 -365 -349 0
-358 -302 -366 -350 0
-359 -303 -367 -351 0
-360 -304 -368 -352 0
-671 -672 0
-671 -673 0
-672 -673 0
-674 -675 0
-674 -676 0
-675 -676 0
-361 671 0
-361 674 0
-362 671 0
-362 675 0
-363 671 0
-363 676 0
-364 672 0
-364 674 0
-365 672 0
-365 675 0
-366 672 0
-366 676 0
-367 673 0
-367 674 0
-368 673 0
-368 675 0
-361 305 369 0
-361 305 353 0
-361 369 353 0
-362 306 370 0
-362 306 354 0
-362 370 354 0
-363 307 371 0
-363 307 355 0
-363 371 355 0
-364 308 372 0
-364 308 356 0
-364 372 356 0
-365 309 373 0
-365 309 357 0
-365 373 357 0
-366 310 374 0
-366 310 358 0
-366 374 358 0
-367 311 375 0
-367 311 359 0
-367 375 359 0
-368 312 376 0
-368 312 360 0
-368 376 360 0
-361 -305 -369 -353 0
-362 -306 -370 -354 0
-363 -307 -371 -355 0
-364 -308 -372 -356 0
-365 -309 -373 -357 0
-366 -310 -374 -358 0
-367 -311 -375 -359 0
-368 -312 -376 -360 0
-677 -678 0
-677 -679 0
-678 -679 0
-680 -681 0
-680 -682 0
-681 -682 0
-369 677 0
-369 680 0
-370 677 0
-370 681 0
-371 677 0
-371 682 0
-372 678 0
-372 680 0
-373 678 0
-373 681 0
-374 678 0
-374 682 0
-375 679 0
-375 680 0
-376 679 0
-376 681 0
-369 313 377 0
-369 313 361 0
-369 377 361 0
-370 314 378 0
-370 314 362 0
-370 378 362 0
-371 315 379 0
-371 315 363 0
-371 379 363 0
-372 316 380 0
-372 316 364 0
-372 380 364 0
-373 317 381 0
-373 317 365 0
-373 381 365 0
-374 318 382 0
-374 318 366 0
-374 382 366 0
-375 319 383 0
-375 319 367 0
-375 383 367 0
-376 320 384 0
-376 320 368 0
-376 384 368 0
-369 -313 -377 -361 0
-370 -314 -378 -362 0
-371 -315 -379 -363 0
-372 -316 -380 -364 0
-373 -317 -381 -365 0
-374 -318 -382 -366 0
-375 -319 -383 -367 0
-376 -320 -384 -368 0
-683 -684 0
-683 -685 0
-684 -685 0
-686 -687 0
-686 -688 0
-687 -688 0
-377 683 0
-377 686 0
-378 683 0
-378 687 0
-379 683 0
-379 688 0
-380 684 0
-380 686 0
-381 684 0
-381 687 0
-382 684 0
-382 688 0
-383 685 0
-383 686 0
-384 685 0
-384 687 0
-377 321 385 0
-377 321 369 0
-377 385 369 0
-378 322 386 0
-378 322 370 0
-378 386 370 0
-379 323 387 0
-379 323 371 0
-379 387 371 0
-380 324 388 0
-380 324 372 0
-380 388 372 0
-381 325 389 0
-381 325 373 0
-381 389 373 0
-382 326 390 0
-382 326 374 0
-382 390 374 0
-383 327 391 0
-383 327 375 0
-383 391 375 0
-384 328 392 0
-384 328 376 0
-384 392 376 0
-377 -321 -385 -369 0
-378 -322 -386 -370 0
-379 -323 -387 -371 0
-380 -324 -388 -372 0
-381 -325 -389 -373 0
-382 -326 -390 -374 0
-383 -327 -391 -375 0
-384 -328 -392 -376 0
392 0
-385 0
-386 0
-387 0
-388 0
-389 0
-390 0
-391 0
336 384 0
-336 -384 0
57 81 89 0
113 121 145 153 0
9 121 233 289 0
170 202 210 218 0
226 234 242 258 266 274 0
282 290 298 306 314 322 330 0
10 122 234 290 0
18 242 298 354 0
82 306 362 0
34 90 146 202 258 314 370 0
42 154 210 266 322 378 0
115 123 147 155 0
35 91 147 203 259 315 371 0
43 155 211 267 323 379 0
116 124 148 156 0
172 204 212 220 0
36 92 148 204 260 316 372 0
23 247 303 359 0
24 248 304 360 0
88 312 368 0
40 96 152 208 264 320 376 0
48 160 216 272 328 384 0